c random cnf
p cnf 50 50
33 48 0
4 -38 0
-30 37 0
27 34 0
-20 -23 0
-29 -33 0
-2 -5 0
31 -39 0
-11 21 0
17 -37 0
1 47 0
2 -15 0
-3 -11 0
24 -39 0
-44 -45 0
37 40 0
20 -21 0
16 -35 0
-22 25 0
29 -42 0
2 -21 0
1 40 0
28 39 0
18 21 0
-18 32 0
7 39 0
10 -42 0
21 -47 0
-15 -29 0
7 -24 0
-17 20 0
-14 -28 0
-43 -46 0
-7 -18 0
12 41 0
16 -28 0
-12 13 0
-25 38 0
5 -34 0
-26 -30 0
-4 -10 0
43 -46 0
32 43 0
13 41 0
-13 46 0
19 -20 0
-4 15 0
27 -50 0
9 45 0
-7 18 0
